/*********************************************
* OPL 12.8.0.0 Data
* Author: Adrien BLASSIAU Corentin JUVIGNY
* Creation Date: 18/03/2020 15:43:49
*********************************************/

T=12;
M=6;
R=6;
Emax=[3, 3, 3, 3, 3, 3, 3, 3, 3, 3, 3, 3];
f=[[10, 30, 60, 90, 120, 150], [10, 30, 60, 90, 120, 150], [10, 30, 60, 90, 120, 150], [10, 30, 60, 90, 120, 150], [10, 30, 60, 90, 120, 150], [10, 30, 60, 90, 120, 150], [10, 30, 60, 90, 120, 150], [10, 30, 60, 90, 120, 150], [10, 30, 60, 90, 120, 150], [10, 30, 60, 90, 120, 150], [10, 30, 60, 90, 120, 150], [10, 30, 60, 90, 120, 150]];
e=[[12, 10, 8, 6, 4, 2], [12, 10,8, 6, 4, 2], [12, 10, 8, 6, 4, 2], [12, 10, 8, 6, 4, 2], [12, 10, 8, 6, 4, 2], [12, 10, 8, 6, 4, 2], [12, 10, 8, 6, 4, 2], [12, 10,8, 6, 4, 2], [12, 10,8, 6, 4, 2], [12, 10,8, 6, 4, 2], [12, 10,8, 6, 4, 2], [12, 10,8, 6, 4, 2]];
h=[1, 1, 1, 1, 1, 1, 1, 1, 1, 1, 1, 1];
p=[[0, 0, 0, 0, 0, 0], [0, 0, 0, 0, 0, 0], [0, 0, 0, 0, 0, 0], [0, 0, 0, 0, 0, 0], [0, 0, 0, 0, 0, 0], [0, 0, 0, 0, 0, 0], [0, 0, 0, 0, 0, 0], [0, 0, 0, 0, 0, 0], [0, 0, 0, 0, 0, 0], [0, 0, 0, 0, 0, 0], [0, 0, 0, 0, 0, 0], [0, 0, 0, 0, 0, 0]];
d=[36, 30, 52, 55, 23, 67, 54, 23, 66, 49, 38, 29];
